15 40
25
3 11 0 13
3 13 3 13
2 9 13 29
2 7 11 29
3 9 0 24
3 7 0 33
2 11 9 25
2 13 9 0
4 11 11 12
4 13 5 0
5 3 3 37
2 11 3 26
2 2 13 38
3 11 6 13
3 2 6 24
4 5 5 26
4 6 11 23
2 12 9 13
2 1 11 36
5 3 8 37
5 13 0 0
4 12 11 0
4 1 7 36
2 5 7 31
2 6 5 31
